DATASET = "thpack2";
INSTANCE = "029";

WIDTH = 233;
HEIGHT = 220;
LENGTH = 587;

NO_OF_SHAPES = 5;
size = [|
  91,58,57 |
  92,78,53 |
  112,48,28 |
  78,47,26 |
  41,40,28 |
|];

verticality = [|
  1,1,1 |
  1,1,1 |
  0,1,1 |
  0,1,1 |
  1,1,1 |
|];

box_count = [
  32,
  29,
  32,
  34,
  29,
];
